data/lp_files/pEFS/65_9.lp
\ Model foo
\ LP format - for model browsing. Use MPS format to capture full model detail.
Minimize
  z
Subject To
 allocateEach[1]: x[1,1] + x[2,1] + x[3,1] + x[4,1] = 1
 allocateEach[2]: x[1,2] + x[2,2] + x[3,2] + x[4,2] = 1
 allocateEach[3]: x[1,3] + x[2,3] + x[3,3] + x[4,3] = 1
 allocateEach[4]: x[1,4] + x[2,4] + x[3,4] + x[4,4] = 1
 allocateEach[5]: x[1,5] + x[2,5] + x[3,5] + x[4,5] = 1
 allocateAllCash: cashProportion[1] + cashProportion[2] + cashProportion[3]
   + cashProportion[4] = 1
 findWorstP[1,2]: z + 0.3326237360298031 cashProportion[1]
   - 0.3326237360298031 cashProportion[2] + 0.035524215007983 x[1,1]
   + 0.303918307610431 x[1,2] + 0.1571314529004789 x[1,3]
   + 0.1088012240553486 x[1,4] + 0.0620010643959553 x[1,5]
   - 0.035524215007983 x[2,1] - 0.303918307610431 x[2,2]
   - 0.1571314529004789 x[2,3] - 0.1088012240553486 x[2,4]
   - 0.0620010643959553 x[2,5] >= 0
 findWorstP[1,3]: z + 0.3326237360298031 cashProportion[1]
   - 0.3326237360298031 cashProportion[3] + 0.035524215007983 x[1,1]
   + 0.303918307610431 x[1,2] + 0.1571314529004789 x[1,3]
   + 0.1088012240553486 x[1,4] + 0.0620010643959553 x[1,5]
   - 0.035524215007983 x[3,1] - 0.303918307610431 x[3,2]
   - 0.1571314529004789 x[3,3] - 0.1088012240553486 x[3,4]
   - 0.0620010643959553 x[3,5] >= 0
 findWorstP[1,4]: z + 0.3326237360298031 cashProportion[1]
   - 0.3326237360298031 cashProportion[4] + 0.035524215007983 x[1,1]
   + 0.303918307610431 x[1,2] + 0.1571314529004789 x[1,3]
   + 0.1088012240553486 x[1,4] + 0.0620010643959553 x[1,5]
   - 0.035524215007983 x[4,1] - 0.303918307610431 x[4,2]
   - 0.1571314529004789 x[4,3] - 0.1088012240553486 x[4,4]
   - 0.0620010643959553 x[4,5] >= 0
 findWorstP[2,1]: z - 0.286697247706422 cashProportion[1]
   + 0.286697247706422 cashProportion[2] - 0.2775229357798165 x[1,1]
   - 0.0296731651376147 x[1,2] - 0.1486811926605504 x[1,3]
   - 0.0773795871559633 x[1,4] - 0.180045871559633 x[1,5]
   + 0.2775229357798165 x[2,1] + 0.0296731651376147 x[2,2]
   + 0.1486811926605504 x[2,3] + 0.0773795871559633 x[2,4]
   + 0.180045871559633 x[2,5] >= 0
 findWorstP[2,3]: z + 0.286697247706422 cashProportion[2]
   - 0.286697247706422 cashProportion[3] + 0.2775229357798165 x[2,1]
   + 0.0296731651376147 x[2,2] + 0.1486811926605504 x[2,3]
   + 0.0773795871559633 x[2,4] + 0.180045871559633 x[2,5]
   - 0.2775229357798165 x[3,1] - 0.0296731651376147 x[3,2]
   - 0.1486811926605504 x[3,3] - 0.0773795871559633 x[3,4]
   - 0.180045871559633 x[3,5] >= 0
 findWorstP[2,4]: z + 0.286697247706422 cashProportion[2]
   - 0.286697247706422 cashProportion[4] + 0.2775229357798165 x[2,1]
   + 0.0296731651376147 x[2,2] + 0.1486811926605504 x[2,3]
   + 0.0773795871559633 x[2,4] + 0.180045871559633 x[2,5]
   - 0.2775229357798165 x[4,1] - 0.0296731651376147 x[4,2]
   - 0.1486811926605504 x[4,3] - 0.0773795871559633 x[4,4]
   - 0.180045871559633 x[4,5] >= 0
 findWorstP[3,1]: z - 0.2933583665806149 cashProportion[1]
   + 0.2933583665806149 cashProportion[3] - 0.0242020652429007 x[1,1]
   - 0.1347394977704764 x[1,2] - 0.1927951185167801 x[1,3]
   - 0.1866345928185872 x[1,4] - 0.1682703590706407 x[1,5]
   + 0.0242020652429007 x[3,1] + 0.1347394977704764 x[3,2]
   + 0.1927951185167801 x[3,3] + 0.1866345928185872 x[3,4]
   + 0.1682703590706407 x[3,5] >= 0
 findWorstP[3,2]: z - 0.2933583665806149 cashProportion[2]
   + 0.2933583665806149 cashProportion[3] - 0.0242020652429007 x[2,1]
   - 0.1347394977704764 x[2,2] - 0.1927951185167801 x[2,3]
   - 0.1866345928185872 x[2,4] - 0.1682703590706407 x[2,5]
   + 0.0242020652429007 x[3,1] + 0.1347394977704764 x[3,2]
   + 0.1927951185167801 x[3,3] + 0.1866345928185872 x[3,4]
   + 0.1682703590706407 x[3,5] >= 0
 findWorstP[3,4]: z + 0.2933583665806149 cashProportion[3]
   - 0.2933583665806149 cashProportion[4] + 0.0242020652429007 x[3,1]
   + 0.1347394977704764 x[3,2] + 0.1927951185167801 x[3,3]
   + 0.1866345928185872 x[3,4] + 0.1682703590706407 x[3,5]
   - 0.0242020652429007 x[4,1] - 0.1347394977704764 x[4,2]
   - 0.1927951185167801 x[4,3] - 0.1866345928185872 x[4,4]
   - 0.1682703590706407 x[4,5] >= 0
 findWorstP[4,1]: z - 0.2755428193541277 cashProportion[1]
   + 0.2755428193541277 cashProportion[4] - 0.00614460487159705 x[1,1]
   - 0.1020886145707043 x[1,2] - 0.2222252838091039 x[1,3]
   - 0.1962415959440097 x[1,4] - 0.1977570814504574 x[1,5]
   + 0.00614460487159705 x[4,1] + 0.1020886145707043 x[4,2]
   + 0.2222252838091039 x[4,3] + 0.1962415959440097 x[4,4]
   + 0.1977570814504574 x[4,5] >= 0
 findWorstP[4,2]: z - 0.2755428193541277 cashProportion[2]
   + 0.2755428193541277 cashProportion[4] - 0.00614460487159705 x[2,1]
   - 0.1020886145707043 x[2,2] - 0.2222252838091039 x[2,3]
   - 0.1962415959440097 x[2,4] - 0.1977570814504574 x[2,5]
   + 0.00614460487159705 x[4,1] + 0.1020886145707043 x[4,2]
   + 0.2222252838091039 x[4,3] + 0.1962415959440097 x[4,4]
   + 0.1977570814504574 x[4,5] >= 0
 findWorstP[4,3]: z - 0.2755428193541277 cashProportion[3]
   + 0.2755428193541277 cashProportion[4] - 0.00614460487159705 x[3,1]
   - 0.1020886145707043 x[3,2] - 0.2222252838091039 x[3,3]
   - 0.1962415959440097 x[3,4] - 0.1977570814504574 x[3,5]
   + 0.00614460487159705 x[4,1] + 0.1020886145707043 x[4,2]
   + 0.2222252838091039 x[4,3] + 0.1962415959440097 x[4,4]
   + 0.1977570814504574 x[4,5] >= 0
Bounds
 z <= 1
 -infinity <= cashProportion[1] <= 1
 -infinity <= cashProportion[2] <= 1
 -infinity <= cashProportion[3] <= 1
 -infinity <= cashProportion[4] <= 1
Binaries
 x[1,1] x[1,2] x[1,3] x[1,4] x[1,5] x[2,1] x[2,2] x[2,3] x[2,4] x[2,5]
 x[3,1] x[3,2] x[3,3] x[3,4] x[3,5] x[4,1] x[4,2] x[4,3] x[4,4] x[4,5]
End
