data/mps_files/q3/65_9.mps
NAME foo
ROWS
 N  OBJ
 E  allocateEach[1]
 E  allocateEach[2]
 E  allocateEach[3]
 E  allocateEach[4]
 E  allocateEach[5]
 E  allocateAllCash
 G  findWorstP[1,2]
 G  findWorstP[1,3]
 G  findWorstP[1,4]
 G  findWorstP[2,1]
 G  findWorstP[2,3]
 G  findWorstP[2,4]
 G  findWorstP[3,1]
 G  findWorstP[3,2]
 G  findWorstP[3,4]
 G  findWorstP[4,1]
 G  findWorstP[4,2]
 G  findWorstP[4,3]
COLUMNS
    z         OBJ       1
    z         findWorstP[1,2]  1
    z         findWorstP[1,3]  1
    z         findWorstP[1,4]  1
    z         findWorstP[2,1]  1
    z         findWorstP[2,3]  1
    z         findWorstP[2,4]  1
    z         findWorstP[3,1]  1
    z         findWorstP[3,2]  1
    z         findWorstP[3,4]  1
    z         findWorstP[4,1]  1
    z         findWorstP[4,2]  1
    z         findWorstP[4,3]  1
    cashProportion[1]  allocateAllCash  1
    cashProportion[1]  findWorstP[1,2]  3.3262373602980311e-01
    cashProportion[1]  findWorstP[1,3]  3.3262373602980311e-01
    cashProportion[1]  findWorstP[1,4]  3.3262373602980311e-01
    cashProportion[1]  findWorstP[2,1]  -0.286697247706422
    cashProportion[1]  findWorstP[3,1]  -2.9335836658061493e-01
    cashProportion[1]  findWorstP[4,1]  -2.7554281935412767e-01
    cashProportion[2]  allocateAllCash  1
    cashProportion[2]  findWorstP[1,2]  -3.3262373602980311e-01
    cashProportion[2]  findWorstP[2,1]  0.286697247706422
    cashProportion[2]  findWorstP[2,3]  0.286697247706422
    cashProportion[2]  findWorstP[2,4]  0.286697247706422
    cashProportion[2]  findWorstP[3,2]  -2.9335836658061493e-01
    cashProportion[2]  findWorstP[4,2]  -2.7554281935412767e-01
    cashProportion[3]  allocateAllCash  1
    cashProportion[3]  findWorstP[1,3]  -3.3262373602980311e-01
    cashProportion[3]  findWorstP[2,3]  -0.286697247706422
    cashProportion[3]  findWorstP[3,1]  2.9335836658061493e-01
    cashProportion[3]  findWorstP[3,2]  2.9335836658061493e-01
    cashProportion[3]  findWorstP[3,4]  2.9335836658061493e-01
    cashProportion[3]  findWorstP[4,3]  -2.7554281935412767e-01
    cashProportion[4]  allocateAllCash  1
    cashProportion[4]  findWorstP[1,4]  -3.3262373602980311e-01
    cashProportion[4]  findWorstP[2,4]  -0.286697247706422
    cashProportion[4]  findWorstP[3,4]  -2.9335836658061493e-01
    cashProportion[4]  findWorstP[4,1]  2.7554281935412767e-01
    cashProportion[4]  findWorstP[4,2]  2.7554281935412767e-01
    cashProportion[4]  findWorstP[4,3]  2.7554281935412767e-01
    MARKER    'MARKER'                 'INTORG'
    x[1,1]    allocateEach[1]  1
    x[1,1]    findWorstP[1,2]  3.5524215007982966e-02
    x[1,1]    findWorstP[1,3]  3.5524215007982966e-02
    x[1,1]    findWorstP[1,4]  3.5524215007982966e-02
    x[1,1]    findWorstP[2,1]  -2.7752293577981646e-01
    x[1,1]    findWorstP[3,1]  -2.4202065242900729e-02
    x[1,1]    findWorstP[4,1]  -6.1446048715970460e-03
    x[1,2]    allocateEach[2]  1
    x[1,2]    findWorstP[1,2]  3.0391830761043104e-01
    x[1,2]    findWorstP[1,3]  3.0391830761043104e-01
    x[1,2]    findWorstP[1,4]  3.0391830761043104e-01
    x[1,2]    findWorstP[2,1]  -2.9673165137614671e-02
    x[1,2]    findWorstP[3,1]  -1.3473949777047642e-01
    x[1,2]    findWorstP[4,1]  -1.0208861457070428e-01
    x[1,3]    allocateEach[3]  1
    x[1,3]    findWorstP[1,2]  1.5713145290047895e-01
    x[1,3]    findWorstP[1,3]  1.5713145290047895e-01
    x[1,3]    findWorstP[1,4]  1.5713145290047895e-01
    x[1,3]    findWorstP[2,1]  -1.4868119266055041e-01
    x[1,3]    findWorstP[3,1]  -1.9279511851678011e-01
    x[1,3]    findWorstP[4,1]  -2.2222528380910392e-01
    x[1,4]    allocateEach[4]  1
    x[1,4]    findWorstP[1,2]  1.0880122405534857e-01
    x[1,4]    findWorstP[1,3]  1.0880122405534857e-01
    x[1,4]    findWorstP[1,4]  1.0880122405534857e-01
    x[1,4]    findWorstP[2,1]  -7.7379587155963284e-02
    x[1,4]    findWorstP[3,1]  -1.8663459281858719e-01
    x[1,4]    findWorstP[4,1]  -1.9624159594400969e-01
    x[1,5]    allocateEach[5]  1
    x[1,5]    findWorstP[1,2]  6.2001064395955291e-02
    x[1,5]    findWorstP[1,3]  6.2001064395955291e-02
    x[1,5]    findWorstP[1,4]  6.2001064395955291e-02
    x[1,5]    findWorstP[2,1]  -0.180045871559633
    x[1,5]    findWorstP[3,1]  -1.6827035907064070e-01
    x[1,5]    findWorstP[4,1]  -1.9775708145045739e-01
    x[2,1]    allocateEach[1]  1
    x[2,1]    findWorstP[1,2]  -3.5524215007982966e-02
    x[2,1]    findWorstP[2,1]  2.7752293577981646e-01
    x[2,1]    findWorstP[2,3]  2.7752293577981646e-01
    x[2,1]    findWorstP[2,4]  2.7752293577981646e-01
    x[2,1]    findWorstP[3,2]  -2.4202065242900729e-02
    x[2,1]    findWorstP[4,2]  -6.1446048715970460e-03
    x[2,2]    allocateEach[2]  1
    x[2,2]    findWorstP[1,2]  -3.0391830761043104e-01
    x[2,2]    findWorstP[2,1]  2.9673165137614671e-02
    x[2,2]    findWorstP[2,3]  2.9673165137614671e-02
    x[2,2]    findWorstP[2,4]  2.9673165137614671e-02
    x[2,2]    findWorstP[3,2]  -1.3473949777047642e-01
    x[2,2]    findWorstP[4,2]  -1.0208861457070428e-01
    x[2,3]    allocateEach[3]  1
    x[2,3]    findWorstP[1,2]  -1.5713145290047895e-01
    x[2,3]    findWorstP[2,1]  1.4868119266055041e-01
    x[2,3]    findWorstP[2,3]  1.4868119266055041e-01
    x[2,3]    findWorstP[2,4]  1.4868119266055041e-01
    x[2,3]    findWorstP[3,2]  -1.9279511851678011e-01
    x[2,3]    findWorstP[4,2]  -2.2222528380910392e-01
    x[2,4]    allocateEach[4]  1
    x[2,4]    findWorstP[1,2]  -1.0880122405534857e-01
    x[2,4]    findWorstP[2,1]  7.7379587155963284e-02
    x[2,4]    findWorstP[2,3]  7.7379587155963284e-02
    x[2,4]    findWorstP[2,4]  7.7379587155963284e-02
    x[2,4]    findWorstP[3,2]  -1.8663459281858719e-01
    x[2,4]    findWorstP[4,2]  -1.9624159594400969e-01
    x[2,5]    allocateEach[5]  1
    x[2,5]    findWorstP[1,2]  -6.2001064395955291e-02
    x[2,5]    findWorstP[2,1]  0.180045871559633
    x[2,5]    findWorstP[2,3]  0.180045871559633
    x[2,5]    findWorstP[2,4]  0.180045871559633
    x[2,5]    findWorstP[3,2]  -1.6827035907064070e-01
    x[2,5]    findWorstP[4,2]  -1.9775708145045739e-01
    x[3,1]    allocateEach[1]  1
    x[3,1]    findWorstP[1,3]  -3.5524215007982966e-02
    x[3,1]    findWorstP[2,3]  -2.7752293577981646e-01
    x[3,1]    findWorstP[3,1]  2.4202065242900729e-02
    x[3,1]    findWorstP[3,2]  2.4202065242900729e-02
    x[3,1]    findWorstP[3,4]  2.4202065242900729e-02
    x[3,1]    findWorstP[4,3]  -6.1446048715970460e-03
    x[3,2]    allocateEach[2]  1
    x[3,2]    findWorstP[1,3]  -3.0391830761043104e-01
    x[3,2]    findWorstP[2,3]  -2.9673165137614671e-02
    x[3,2]    findWorstP[3,1]  1.3473949777047642e-01
    x[3,2]    findWorstP[3,2]  1.3473949777047642e-01
    x[3,2]    findWorstP[3,4]  1.3473949777047642e-01
    x[3,2]    findWorstP[4,3]  -1.0208861457070428e-01
    x[3,3]    allocateEach[3]  1
    x[3,3]    findWorstP[1,3]  -1.5713145290047895e-01
    x[3,3]    findWorstP[2,3]  -1.4868119266055041e-01
    x[3,3]    findWorstP[3,1]  1.9279511851678011e-01
    x[3,3]    findWorstP[3,2]  1.9279511851678011e-01
    x[3,3]    findWorstP[3,4]  1.9279511851678011e-01
    x[3,3]    findWorstP[4,3]  -2.2222528380910392e-01
    x[3,4]    allocateEach[4]  1
    x[3,4]    findWorstP[1,3]  -1.0880122405534857e-01
    x[3,4]    findWorstP[2,3]  -7.7379587155963284e-02
    x[3,4]    findWorstP[3,1]  1.8663459281858719e-01
    x[3,4]    findWorstP[3,2]  1.8663459281858719e-01
    x[3,4]    findWorstP[3,4]  1.8663459281858719e-01
    x[3,4]    findWorstP[4,3]  -1.9624159594400969e-01
    x[3,5]    allocateEach[5]  1
    x[3,5]    findWorstP[1,3]  -6.2001064395955291e-02
    x[3,5]    findWorstP[2,3]  -0.180045871559633
    x[3,5]    findWorstP[3,1]  1.6827035907064070e-01
    x[3,5]    findWorstP[3,2]  1.6827035907064070e-01
    x[3,5]    findWorstP[3,4]  1.6827035907064070e-01
    x[3,5]    findWorstP[4,3]  -1.9775708145045739e-01
    x[4,1]    allocateEach[1]  1
    x[4,1]    findWorstP[1,4]  -3.5524215007982966e-02
    x[4,1]    findWorstP[2,4]  -2.7752293577981646e-01
    x[4,1]    findWorstP[3,4]  -2.4202065242900729e-02
    x[4,1]    findWorstP[4,1]  6.1446048715970460e-03
    x[4,1]    findWorstP[4,2]  6.1446048715970460e-03
    x[4,1]    findWorstP[4,3]  6.1446048715970460e-03
    x[4,2]    allocateEach[2]  1
    x[4,2]    findWorstP[1,4]  -3.0391830761043104e-01
    x[4,2]    findWorstP[2,4]  -2.9673165137614671e-02
    x[4,2]    findWorstP[3,4]  -1.3473949777047642e-01
    x[4,2]    findWorstP[4,1]  1.0208861457070428e-01
    x[4,2]    findWorstP[4,2]  1.0208861457070428e-01
    x[4,2]    findWorstP[4,3]  1.0208861457070428e-01
    x[4,3]    allocateEach[3]  1
    x[4,3]    findWorstP[1,4]  -1.5713145290047895e-01
    x[4,3]    findWorstP[2,4]  -1.4868119266055041e-01
    x[4,3]    findWorstP[3,4]  -1.9279511851678011e-01
    x[4,3]    findWorstP[4,1]  2.2222528380910392e-01
    x[4,3]    findWorstP[4,2]  2.2222528380910392e-01
    x[4,3]    findWorstP[4,3]  2.2222528380910392e-01
    x[4,4]    allocateEach[4]  1
    x[4,4]    findWorstP[1,4]  -1.0880122405534857e-01
    x[4,4]    findWorstP[2,4]  -7.7379587155963284e-02
    x[4,4]    findWorstP[3,4]  -1.8663459281858719e-01
    x[4,4]    findWorstP[4,1]  1.9624159594400969e-01
    x[4,4]    findWorstP[4,2]  1.9624159594400969e-01
    x[4,4]    findWorstP[4,3]  1.9624159594400969e-01
    x[4,5]    allocateEach[5]  1
    x[4,5]    findWorstP[1,4]  -6.2001064395955291e-02
    x[4,5]    findWorstP[2,4]  -0.180045871559633
    x[4,5]    findWorstP[3,4]  -1.6827035907064070e-01
    x[4,5]    findWorstP[4,1]  1.9775708145045739e-01
    x[4,5]    findWorstP[4,2]  1.9775708145045739e-01
    x[4,5]    findWorstP[4,3]  1.9775708145045739e-01
    MARKER    'MARKER'                 'INTEND'
RHS
    RHS1      allocateEach[1]  1
    RHS1      allocateEach[2]  1
    RHS1      allocateEach[3]  1
    RHS1      allocateEach[4]  1
    RHS1      allocateEach[5]  1
    RHS1      allocateAllCash  1
BOUNDS
 UP BND1      z         1
 MI BND1      cashProportion[1]
 UP BND1      cashProportion[1]  1
 MI BND1      cashProportion[2]
 UP BND1      cashProportion[2]  1
 MI BND1      cashProportion[3]
 UP BND1      cashProportion[3]  1
 MI BND1      cashProportion[4]
 UP BND1      cashProportion[4]  1
 BV BND1      x[1,1]  
 BV BND1      x[1,2]  
 BV BND1      x[1,3]  
 BV BND1      x[1,4]  
 BV BND1      x[1,5]  
 BV BND1      x[2,1]  
 BV BND1      x[2,2]  
 BV BND1      x[2,3]  
 BV BND1      x[2,4]  
 BV BND1      x[2,5]  
 BV BND1      x[3,1]  
 BV BND1      x[3,2]  
 BV BND1      x[3,3]  
 BV BND1      x[3,4]  
 BV BND1      x[3,5]  
 BV BND1      x[4,1]  
 BV BND1      x[4,2]  
 BV BND1      x[4,3]  
 BV BND1      x[4,4]  
 BV BND1      x[4,5]  
ENDATA
